# Solution for model r10_t18_m3_3
# Finished Task: 18 / 18
# Makespan: 649.0, Total Distance: 1392.0, Total Time: 0.1196
# R O S F
0 0 15 0.0 0.0
1 1 13 0.0 0.0
2 2 20 0.0 0.0
3 3 14 0.0 0.0
4 4 19 0.0 0.0
5 5 24 0.0 0.0
6 6 12 0.0 0.0
7 7 -1 0.0 0.0
8 8 -1 0.0 0.0
9 9 -1 0.0 0.0
10 0 27 349.0 386.0
11 2 16 314.0 346.0
12 6 18 48.0 79.0
13 1 23 106.0 139.0
14 3 21 271.0 303.0
15 0 10 150.0 180.0
16 2 26 430.0 463.0
17 4 -1 595.0 634.0
18 6 -1 290.0 327.0
19 4 25 327.0 360.0
20 2 11 165.0 194.0
21 3 -1 625.0 649.0
22 1 -1 557.0 595.0
23 1 22 220.0 249.0
24 5 -1 272.0 302.0
25 4 17 402.0 432.0
26 2 -1 560.0 593.0
27 0 -1 596.0 625.0
